c ! encoding i-pc 61
p cnf 154 1461
-3 -62 0
-4 -62 0
-5 -62 0
6 -62 0
-16 -62 0
17 -62 0
-18 -62 0
-27 -62 0
28 -62 0
-29 -62 0
33 -62 0
-34 -62 0
-35 -62 0
-36 -62 0
-37 -62 0
-38 -62 0
-39 -62 0
-40 -62 0
41 -62 0
-42 -62 0
-43 -62 0
-44 -62 0
45 -62 0
-46 -62 0
-48 -62 0
49 -62 0
-50 -62 0
-51 -62 0
-52 -62 0
53 -62 0
-54 -62 0
-55 -62 0
-56 -62 0
57 -62 0
-58 -62 0
-59 -62 0
-60 -62 0
-61 -62 0
3 -63 0
-4 -63 0
-5 -63 0
-6 -63 0
-16 -63 0
-17 -63 0
18 -63 0
-27 -63 0
29 -63 0
-33 -63 0
34 -63 0
-35 -63 0
-36 -63 0
-37 -63 0
38 -63 0
-39 -63 0
-40 -63 0
-41 -63 0
-42 -63 0
-43 -63 0
-44 -63 0
-45 -63 0
46 -63 0
-48 -63 0
-49 -63 0
50 -63 0
-51 -63 0
-52 -63 0
54 -63 0
-55 -63 0
-56 -63 0
57 -63 0
-58 -63 0
-59 -63 0
-60 -63 0
-61 -63 0
-3 -64 0
4 -64 0
-5 -64 0
-6 -64 0
-16 -64 0
-17 -64 0
18 -64 0
27 -64 0
-29 -64 0
-33 -64 0
-34 -64 0
35 -64 0
-36 -64 0
-37 -64 0
-38 -64 0
39 -64 0
-40 -64 0
-41 -64 0
-42 -64 0
-43 -64 0
-44 -64 0
-45 -64 0
46 -64 0
-48 -64 0
-49 -64 0
50 -64 0
-51 -64 0
52 -64 0
-54 -64 0
-55 -64 0
-56 -64 0
-57 -64 0
58 -64 0
-59 -64 0
-60 -64 0
-61 -64 0
63 64 -65 0
-28 -66 0
-53 -66 0
65 -67 0
66 -67 0
62 67 -68 0
-2 -69 0
-14 -69 0
-15 -69 0
20 -69 0
-21 -69 0
-22 -69 0
-23 -69 0
-24 -69 0
-26 -69 0
-30 -69 0
-32 -69 0
-47 -69 0
68 -70 0
69 -70 0
-2 -71 0
-3 -71 0
-4 -71 0
5 -71 0
-6 -71 0
-14 -71 0
-15 -71 0
-16 -71 0
-17 -71 0
18 -71 0
21 -71 0
-22 -71 0
-24 -71 0
-26 -71 0
28 -71 0
-29 -71 0
32 -71 0
-33 -71 0
-34 -71 0
-35 -71 0
-36 -71 0
-37 -71 0
-38 -71 0
-39 -71 0
40 -71 0
-41 -71 0
-42 -71 0
-43 -71 0
-44 -71 0
-45 -71 0
46 -71 0
-48 -71 0
49 -71 0
-50 -71 0
-51 -71 0
52 -71 0
-53 -71 0
-54 -71 0
-55 -71 0
-56 -71 0
-57 -71 0
58 -71 0
-59 -71 0
-60 -71 0
-61 -71 0
-2 -72 0
-3 -72 0
-4 -72 0
5 -72 0
-6 -72 0
-14 -72 0
-15 -72 0
-16 -72 0
-17 -72 0
18 -72 0
21 -72 0
-22 -72 0
-24 -72 0
26 -72 0
-28 -72 0
-29 -72 0
-32 -72 0
-33 -72 0
34 -72 0
-35 -72 0
-36 -72 0
-37 -72 0
-38 -72 0
-39 -72 0
40 -72 0
-41 -72 0
-42 -72 0
-43 -72 0
-44 -72 0
-45 -72 0
46 -72 0
-48 -72 0
49 -72 0
-50 -72 0
-51 -72 0
52 -72 0
-53 -72 0
-54 -72 0
-55 -72 0
-56 -72 0
-57 -72 0
58 -72 0
-59 -72 0
-60 -72 0
-61 -72 0
71 72 -73 0
-20 -74 0
-23 -74 0
-27 -74 0
-30 -74 0
-47 -74 0
73 -75 0
74 -75 0
70 75 -76 0
-1 -77 0
7 -77 0
-8 -77 0
-9 -77 0
-10 -77 0
-11 -77 0
-12 -77 0
-13 -77 0
-19 -77 0
-25 -77 0
-31 -77 0
76 -78 0
77 -78 0
-1 -79 0
-2 -79 0
-4 -79 0
5 -79 0
-6 -79 0
8 -79 0
-10 -79 0
-11 -79 0
-12 -79 0
-13 -79 0
-14 -79 0
18 -79 0
19 -79 0
-20 -79 0
-22 -79 0
-23 -79 0
-24 -79 0
-31 -79 0
-32 -79 0
34 -79 0
-35 -79 0
-36 -79 0
-37 -79 0
-38 -79 0
39 -79 0
-40 -79 0
-41 -79 0
-42 -79 0
-43 -79 0
-44 -79 0
45 -79 0
-46 -79 0
-47 -79 0
-48 -79 0
-49 -79 0
-50 -79 0
51 -79 0
-52 -79 0
53 -79 0
-54 -79 0
-55 -79 0
-56 -79 0
57 -79 0
-58 -79 0
-59 -79 0
-60 -79 0
-61 -79 0
1 -80 0
-2 -80 0
-4 -80 0
-6 -80 0
-8 -80 0
12 -80 0
-13 -80 0
14 -80 0
-32 -80 0
34 -80 0
-36 -80 0
-37 -80 0
-39 -80 0
-40 -80 0
41 -80 0
-42 -80 0
-44 -80 0
45 -80 0
-46 -80 0
49 -80 0
-50 -80 0
-51 -80 0
57 -80 0
-59 -80 0
-60 -80 0
-61 -80 0
-5 -81 0
-11 -81 0
-19 -81 0
-22 -81 0
23 -81 0
-24 -81 0
-31 -81 0
-35 -81 0
-38 -81 0
-43 -81 0
-47 -81 0
-48 -81 0
-52 -81 0
53 -81 0
-54 -81 0
-55 -81 0
-56 -81 0
-58 -81 0
80 -82 0
81 -82 0
-1 -83 0
2 -83 0
-4 -83 0
-5 -83 0
-6 -83 0
-8 -83 0
-11 -83 0
12 -83 0
13 -83 0
-14 -83 0
-19 -83 0
22 -83 0
-23 -83 0
-24 -83 0
-31 -83 0
-32 -83 0
-34 -83 0
35 -83 0
-36 -83 0
-37 -83 0
-38 -83 0
-39 -83 0
40 -83 0
-41 -83 0
-42 -83 0
-43 -83 0
-44 -83 0
-45 -83 0
46 -83 0
-47 -83 0
-48 -83 0
49 -83 0
-50 -83 0
-51 -83 0
52 -83 0
-53 -83 0
-54 -83 0
-55 -83 0
-56 -83 0
-57 -83 0
58 -83 0
-59 -83 0
-60 -83 0
-61 -83 0
82 83 -84 0
-10 -85 0
-18 -85 0
-20 -85 0
84 -86 0
85 -86 0
79 86 -87 0
-3 -88 0
-9 -88 0
-15 -88 0
-16 -88 0
-17 -88 0
-21 -88 0
-25 -88 0
-26 -88 0
27 -88 0
-28 -88 0
-29 -88 0
-30 -88 0
-33 -88 0
87 -89 0
88 -89 0
-1 -90 0
-2 -90 0
-3 -90 0
4 -90 0
-5 -90 0
-6 -90 0
-8 -90 0
9 -90 0
-10 -90 0
-11 -90 0
-12 -90 0
-13 -90 0
-14 -90 0
-15 -90 0
-16 -90 0
17 -90 0
-18 -90 0
-19 -90 0
20 -90 0
-21 -90 0
-22 -90 0
-23 -90 0
-24 -90 0
-25 -90 0
-26 -90 0
-28 -90 0
-29 -90 0
30 -90 0
31 -90 0
-32 -90 0
-33 -90 0
-34 -90 0
-35 -90 0
-36 -90 0
37 -90 0
-38 -90 0
-39 -90 0
-40 -90 0
-41 -90 0
-42 -90 0
43 -90 0
-44 -90 0
-45 -90 0
-46 -90 0
-47 -90 0
-48 -90 0
49 -90 0
-50 -90 0
-51 -90 0
-52 -90 0
-53 -90 0
-54 -90 0
55 -90 0
-56 -90 0
-57 -90 0
-58 -90 0
-59 -90 0
-60 -90 0
61 -90 0
-1 -91 0
2 -91 0
-3 -91 0
-5 -91 0
-6 -91 0
-13 -91 0
-14 -91 0
-15 -91 0
17 -91 0
-18 -91 0
19 -91 0
-21 -91 0
-23 -91 0
-24 -91 0
-25 -91 0
-26 -91 0
-29 -91 0
30 -91 0
-31 -91 0
-32 -91 0
33 -91 0
-35 -91 0
-36 -91 0
-37 -91 0
38 -91 0
-39 -91 0
-40 -91 0
-41 -91 0
42 -91 0
-43 -91 0
-44 -91 0
-45 -91 0
-46 -91 0
-47 -91 0
-48 -91 0
-49 -91 0
50 -91 0
-51 -91 0
-52 -91 0
-53 -91 0
-54 -91 0
-55 -91 0
56 -91 0
-57 -91 0
-58 -91 0
59 -91 0
-60 -91 0
-61 -91 0
-1 -92 0
-2 -92 0
3 -92 0
-5 -92 0
-6 -92 0
-13 -92 0
14 -92 0
-15 -92 0
-17 -92 0
-18 -92 0
-19 -92 0
-21 -92 0
23 -92 0
-24 -92 0
25 -92 0
-26 -92 0
-29 -92 0
-31 -92 0
-32 -92 0
-33 -92 0
-35 -92 0
36 -92 0
37 -92 0
-38 -92 0
-39 -92 0
-40 -92 0
-41 -92 0
-42 -92 0
43 -92 0
-44 -92 0
-45 -92 0
-46 -92 0
-47 -92 0
-48 -92 0
49 -92 0
-50 -92 0
-51 -92 0
-52 -92 0
-53 -92 0
-54 -92 0
55 -92 0
-56 -92 0
-57 -92 0
-58 -92 0
-59 -92 0
-60 -92 0
61 -92 0
-1 -93 0
-2 -93 0
3 -93 0
-5 -93 0
-6 -93 0
-13 -93 0
-14 -93 0
-15 -93 0
-17 -93 0
18 -93 0
19 -93 0
-21 -93 0
-24 -93 0
-25 -93 0
-26 -93 0
29 -93 0
-31 -93 0
32 -93 0
-33 -93 0
-35 -93 0
-36 -93 0
37 -93 0
-38 -93 0
-39 -93 0
-40 -93 0
-41 -93 0
-42 -93 0
43 -93 0
-44 -93 0
-45 -93 0
-46 -93 0
-47 -93 0
-48 -93 0
-49 -93 0
-50 -93 0
51 -93 0
-52 -93 0
-53 -93 0
-54 -93 0
55 -93 0
-56 -93 0
-57 -93 0
-58 -93 0
59 -93 0
-60 -93 0
-61 -93 0
-1 -94 0
2 -94 0
-3 -94 0
-5 -94 0
-6 -94 0
-13 -94 0
-14 -94 0
15 -94 0
-17 -94 0
-18 -94 0
-19 -94 0
-21 -94 0
24 -94 0
25 -94 0
-26 -94 0
-29 -94 0
-31 -94 0
-32 -94 0
-33 -94 0
35 -94 0
-36 -94 0
-37 -94 0
38 -94 0
-39 -94 0
-40 -94 0
-41 -94 0
42 -94 0
-43 -94 0
-44 -94 0
-45 -94 0
-46 -94 0
-47 -94 0
-48 -94 0
49 -94 0
-50 -94 0
-51 -94 0
-52 -94 0
-53 -94 0
-54 -94 0
-55 -94 0
56 -94 0
-57 -94 0
-58 -94 0
-59 -94 0
60 -94 0
-61 -94 0
93 94 -95 0
-23 -96 0
95 -96 0
92 96 -97 0
-30 -98 0
97 -98 0
91 98 -99 0
-4 -100 0
-8 -100 0
-9 -100 0
10 -100 0
-11 -100 0
-12 -100 0
-16 -100 0
-22 -100 0
-28 -100 0
-34 -100 0
99 -101 0
100 -101 0
-1 -102 0
-2 -102 0
3 -102 0
-4 -102 0
-5 -102 0
-8 -102 0
-9 -102 0
11 -102 0
-13 -102 0
-14 -102 0
-15 -102 0
16 -102 0
-17 -102 0
19 -102 0
-21 -102 0
-22 -102 0
-23 -102 0
-31 -102 0
32 -102 0
-33 -102 0
-34 -102 0
-35 -102 0
-37 -102 0
38 -102 0
-39 -102 0
-40 -102 0
-41 -102 0
42 -102 0
-43 -102 0
-44 -102 0
-45 -102 0
-46 -102 0
-48 -102 0
49 -102 0
-50 -102 0
-51 -102 0
-52 -102 0
-53 -102 0
-54 -102 0
-55 -102 0
56 -102 0
-57 -102 0
-58 -102 0
-59 -102 0
60 -102 0
-61 -102 0
-2 -103 0
3 -103 0
-4 -103 0
8 -103 0
-9 -103 0
-33 -103 0
34 -103 0
37 -103 0
-38 -103 0
-39 -103 0
-42 -103 0
-43 -103 0
44 -103 0
-57 -103 0
58 -103 0
-59 -103 0
-1 -104 0
-5 -104 0
-13 -104 0
-14 -104 0
-15 -104 0
-16 -104 0
17 -104 0
19 -104 0
-22 -104 0
-23 -104 0
-31 -104 0
-32 -104 0
-35 -104 0
-40 -104 0
-41 -104 0
-45 -104 0
-46 -104 0
-48 -104 0
-49 -104 0
50 -104 0
-51 -104 0
-52 -104 0
-53 -104 0
-54 -104 0
-55 -104 0
56 -104 0
-60 -104 0
-61 -104 0
103 -105 0
104 -105 0
-1 -106 0
-2 -106 0
-3 -106 0
-4 -106 0
5 -106 0
-8 -106 0
9 -106 0
-13 -106 0
-14 -106 0
-15 -106 0
16 -106 0
-17 -106 0
19 -106 0
-22 -106 0
-23 -106 0
-31 -106 0
32 -106 0
-33 -106 0
-34 -106 0
-35 -106 0
-37 -106 0
38 -106 0
-39 -106 0
-40 -106 0
-41 -106 0
42 -106 0
-43 -106 0
-44 -106 0
-45 -106 0
-46 -106 0
-48 -106 0
49 -106 0
-50 -106 0
-51 -106 0
-52 -106 0
-53 -106 0
-54 -106 0
-55 -106 0
56 -106 0
-57 -106 0
-58 -106 0
-59 -106 0
60 -106 0
-61 -106 0
105 106 -107 0
-11 -108 0
-21 -108 0
107 -109 0
108 -109 0
102 109 -110 0
-6 -111 0
-12 -111 0
-18 -111 0
-24 -111 0
-25 -111 0
-26 -111 0
-28 -111 0
-29 -111 0
30 -111 0
-36 -111 0
-47 -111 0
110 -112 0
111 -112 0
-1 -113 0
-2 -113 0
-3 -113 0
4 -113 0
-6 -113 0
-13 -113 0
14 -113 0
-15 -113 0
-18 -113 0
-21 -113 0
-22 -113 0
24 -113 0
25 -113 0
-28 -113 0
-31 -113 0
-32 -113 0
33 -113 0
-34 -113 0
-36 -113 0
37 -113 0
-38 -113 0
-39 -113 0
-40 -113 0
-41 -113 0
-42 -113 0
-43 -113 0
44 -113 0
-45 -113 0
-46 -113 0
-47 -113 0
-49 -113 0
50 -113 0
-51 -113 0
-52 -113 0
-53 -113 0
-54 -113 0
-55 -113 0
56 -113 0
-57 -113 0
58 -113 0
-59 -113 0
-60 -113 0
-61 -113 0
-1 -114 0
2 -114 0
-3 -114 0
-4 -114 0
-6 -114 0
13 -114 0
-14 -114 0
-15 -114 0
-18 -114 0
-21 -114 0
-22 -114 0
24 -114 0
-25 -114 0
28 -114 0
-31 -114 0
-32 -114 0
33 -114 0
-34 -114 0
-36 -114 0
-37 -114 0
-38 -114 0
39 -114 0
-40 -114 0
-41 -114 0
-42 -114 0
-43 -114 0
-44 -114 0
45 -114 0
-46 -114 0
-47 -114 0
-49 -114 0
-50 -114 0
51 -114 0
-52 -114 0
53 -114 0
-54 -114 0
-55 -114 0
-56 -114 0
57 -114 0
-58 -114 0
-59 -114 0
-60 -114 0
-61 -114 0
113 114 -115 0
-5 -116 0
-8 -116 0
-9 -116 0
11 -116 0
-12 -116 0
-16 -116 0
-17 -116 0
-19 -116 0
-23 -116 0
-26 -116 0
-29 -116 0
-35 -116 0
-48 -116 0
115 -117 0
116 -117 0
-3 -118 0
4 -118 0
-5 -118 0
-6 -118 0
9 -118 0
-12 -118 0
-23 -118 0
24 -118 0
-33 -118 0
-34 -118 0
35 -118 0
-36 -118 0
37 -118 0
-38 -118 0
-39 -118 0
-40 -118 0
-41 -118 0
43 -118 0
-44 -118 0
-45 -118 0
-46 -118 0
-49 -118 0
-50 -118 0
51 -118 0
-52 -118 0
-54 -118 0
55 -118 0
-56 -118 0
-57 -118 0
-58 -118 0
59 -118 0
-60 -118 0
-61 -118 0
-3 -119 0
4 -119 0
-6 -119 0
-9 -119 0
12 -119 0
33 -119 0
-34 -119 0
-37 -119 0
38 -119 0
-41 -119 0
-43 -119 0
46 -119 0
57 -119 0
-58 -119 0
-61 -119 0
-5 -120 0
23 -120 0
-24 -120 0
-35 -120 0
-36 -120 0
-39 -120 0
-40 -120 0
-44 -120 0
-45 -120 0
-49 -120 0
50 -120 0
-51 -120 0
-52 -120 0
54 -120 0
-55 -120 0
-56 -120 0
-59 -120 0
-60 -120 0
119 -121 0
120 -121 0
118 121 -122 0
-1 -123 0
-2 -123 0
-8 -123 0
13 -123 0
-14 -123 0
-15 -123 0
-16 -123 0
-17 -123 0
-18 -123 0
-19 -123 0
-21 -123 0
-22 -123 0
-25 -123 0
26 -123 0
-28 -123 0
-29 -123 0
-31 -123 0
-32 -123 0
-42 -123 0
-47 -123 0
-48 -123 0
-53 -123 0
122 -124 0
123 -124 0
-2 -125 0
-3 -125 0
4 -125 0
-5 -125 0
-6 -125 0
8 -125 0
-9 -125 0
-12 -125 0
-14 -125 0
15 -125 0
-21 -125 0
-22 -125 0
-23 -125 0
24 -125 0
-32 -125 0
-33 -125 0
-34 -125 0
35 -125 0
-36 -125 0
-37 -125 0
38 -125 0
-39 -125 0
-40 -125 0
-41 -125 0
42 -125 0
-43 -125 0
-44 -125 0
-45 -125 0
-46 -125 0
-48 -125 0
49 -125 0
-50 -125 0
-51 -125 0
-52 -125 0
-53 -125 0
-54 -125 0
-55 -125 0
56 -125 0
-57 -125 0
-58 -125 0
-59 -125 0
60 -125 0
-61 -125 0
-2 -126 0
-3 -126 0
-4 -126 0
5 -126 0
-6 -126 0
-8 -126 0
9 -126 0
-12 -126 0
14 -126 0
-15 -126 0
-21 -126 0
-22 -126 0
-23 -126 0
24 -126 0
-32 -126 0
-33 -126 0
34 -126 0
-35 -126 0
-36 -126 0
-37 -126 0
38 -126 0
-39 -126 0
-40 -126 0
-41 -126 0
42 -126 0
-43 -126 0
-44 -126 0
-45 -126 0
-46 -126 0
-48 -126 0
-49 -126 0
50 -126 0
-51 -126 0
-52 -126 0
-53 -126 0
-54 -126 0
-55 -126 0
56 -126 0
-57 -126 0
-58 -126 0
59 -126 0
-60 -126 0
-61 -126 0
125 126 -127 0
-1 -128 0
-13 -128 0
-18 -128 0
-19 -128 0
25 -128 0
-28 -128 0
-29 -128 0
-31 -128 0
127 -129 0
128 -129 0
-1 -130 0
2 -130 0
-3 -130 0
-6 -130 0
-9 -130 0
12 -130 0
13 -130 0
-14 -130 0
-31 -130 0
-32 -130 0
33 -130 0
-38 -130 0
-39 -130 0
40 -130 0
-41 -130 0
-43 -130 0
-44 -130 0
-45 -130 0
46 -130 0
-48 -130 0
49 -130 0
-50 -130 0
-51 -130 0
58 -130 0
-59 -130 0
-60 -130 0
-61 -130 0
-4 -131 0
-5 -131 0
-8 -131 0
-15 -131 0
-19 -131 0
-21 -131 0
22 -131 0
-23 -131 0
-24 -131 0
-28 -131 0
29 -131 0
-34 -131 0
-35 -131 0
-36 -131 0
-37 -131 0
-42 -131 0
52 -131 0
-53 -131 0
-54 -131 0
-55 -131 0
-56 -131 0
-57 -131 0
130 -132 0
131 -132 0
-1 -133 0
-2 -133 0
3 -133 0
-6 -133 0
-9 -133 0
12 -133 0
13 -133 0
-14 -133 0
-31 -133 0
32 -133 0
-36 -133 0
-38 -133 0
39 -133 0
-40 -133 0
-41 -133 0
-43 -133 0
-44 -133 0
-45 -133 0
46 -133 0
-48 -133 0
-49 -133 0
50 -133 0
-51 -133 0
58 -133 0
-59 -133 0
-60 -133 0
-61 -133 0
-4 -134 0
-5 -134 0
-8 -134 0
-15 -134 0
-19 -134 0
-21 -134 0
-22 -134 0
23 -134 0
-24 -134 0
28 -134 0
-29 -134 0
-33 -134 0
-34 -134 0
-35 -134 0
-37 -134 0
-42 -134 0
52 -134 0
-53 -134 0
-54 -134 0
-55 -134 0
-56 -134 0
-57 -134 0
133 -135 0
134 -135 0
132 135 -136 0
-18 -137 0
-25 -137 0
136 -138 0
137 -138 0
129 138 -139 0
-16 -140 0
-17 -140 0
-26 -140 0
-47 -140 0
139 -141 0
140 -141 0
124 141 -142 0
-11 -143 0
142 -143 0
117 143 -144 0
-30 -145 0
144 -145 0
112 145 -146 0
-10 -147 0
146 -147 0
101 147 -148 0
-20 -149 0
148 -149 0
90 149 -150 0
-27 -151 0
150 -151 0
89 151 -152 0
-7 -153 0
152 -153 0
78 153 -154 0
154 0
-47 0
-48 0
-153 154 0
-152 153 0
-147 148 0
-146 147 0
-144 145 0
-142 143 0
-140 141 0
-139 141 0
-136 138 0
-134 135 0
-131 132 0
-125 127 0
-124 142 0
-123 124 0
-121 122 0
-120 121 0
-117 144 0
-115 117 0
-114 115 0
-113 115 0
-112 146 0
-110 112 0
-109 110 0
-108 109 0
-105 107 0
-44 103 113 0
-102 110 0
-101 148 0
-100 101 0
-10 100 0
-106 107 0
-96 97 0
-95 96 0
-135 136 0
-104 105 0
-60 94 102 106 125 0
-36 92 0
-91 99 0
-126 127 0
-59 91 93 118 126 0
-42 91 94 102 106 125 126 0
-90 150 0
-61 90 92 0
-55 90 92 93 118 0
-43 90 92 93 118 0
-37 90 92 93 103 113 118 0
-30 90 91 111 0
-129 139 0
-89 152 0
-39 64 79 114 133 0
-122 124 0
43 62 63 64 71 72 79 81 83 91 94 102 103 106 113 114 119 125 126 130 133 0
-143 144 0
-62 68 0
-54 63 120 0
6 63 64 71 72 79 80 83 90 91 92 93 94 111 113 114 118 119 125 126 130 133 0
41 63 64 71 72 79 83 90 91 92 93 94 102 104 106 113 114 118 119 125 126 130 133 0
-58 64 71 72 83 103 113 130 133 0
-63 65 0
-38 63 91 94 102 106 119 125 126 0
-29 63 93 131 0
17 63 64 71 72 88 92 93 94 102 106 116 123 140 0
-3 63 92 93 102 103 133 0
61 62 63 64 71 72 79 80 83 91 93 94 102 104 106 113 114 118 119 125 126 130 133 0
-25 92 94 113 128 0
58 62 63 79 81 90 91 92 93 94 102 106 114 118 119 125 126 0
60 62 63 64 71 72 79 80 83 90 91 92 93 104 113 114 118 120 126 130 133 0
-57 62 63 79 80 114 119 0
-49 62 71 72 80 83 90 92 94 102 106 125 130 0
-94 95 0
40 62 63 64 79 80 90 91 92 93 94 102 104 106 113 114 118 120 125 126 133 0
-133 135 0
54 62 64 71 72 79 81 83 90 91 92 93 94 102 104 106 113 114 118 125 126 131 134 0
-132 136 0
-118 122 0
-77 78 0
-127 129 0
35 62 63 71 72 79 81 90 91 92 93 102 104 106 116 120 126 131 134 0
-33 62 91 113 114 119 130 0
-72 73 0
-18 63 64 71 72 79 93 0
18 62 85 90 91 92 94 111 113 114 123 128 137 0
-56 91 94 102 104 106 113 125 126 0
-17 62 90 91 104 0
53 66 71 72 83 90 91 92 93 94 102 104 106 113 123 125 126 131 134 0
-52 64 71 72 83 131 134 0
4 62 63 71 72 79 80 83 100 102 103 106 114 126 131 134 0
-119 121 0
39 62 63 71 72 80 83 90 91 92 93 94 102 103 106 113 118 120 125 126 130 0
-46 63 64 71 72 83 119 130 133 0
-130 132 0
45 63 64 71 72 83 90 91 92 93 94 102 104 106 113 118 120 125 126 130 133 0
-41 62 80 0
56 62 63 64 71 72 79 81 83 90 92 93 114 118 120 131 134 0
-28 62 71 114 134 0
-11 102 116 0
-35 64 83 94 118 125 0
16 62 63 64 71 72 88 90 100 104 116 123 140 0
-6 62 0
-150 151 0
-82 84 0
5 62 63 64 81 83 90 91 92 93 94 102 104 116 118 120 125 131 134 0
-97 98 0
-53 62 79 81 114 0
55 62 63 64 71 72 79 81 83 91 94 102 104 106 113 114 120 125 126 131 134 0
-27 64 88 0
-148 149 0
44 62 63 64 71 72 79 80 83 90 91 92 93 94 102 106 114 118 120 125 126 130 133 0
-40 71 72 83 130 0
27 62 63 74 151 0
-80 82 0
29 62 64 71 72 88 90 91 92 94 111 116 123 128 134 0
3 62 64 71 72 88 90 91 94 106 113 114 118 119 125 126 130 0
-68 70 0
-7 77 0
36 62 63 64 71 72 79 80 83 90 91 93 94 111 113 114 118 120 125 126 131 133 0
38 62 64 71 72 79 81 83 90 92 93 103 113 114 118 130 133 0
-145 146 0
-45 62 79 80 114 0
-50 63 64 91 104 113 120 126 133 0
2 69 71 72 79 80 90 92 93 102 103 106 113 123 125 126 133 0
37 62 63 64 71 72 79 80 83 91 94 102 106 114 119 125 126 131 134 0
-76 78 0
46 62 79 80 90 91 92 93 94 102 104 106 113 114 118 125 126 0
-73 75 0
48 62 63 64 71 72 79 81 83 90 91 92 93 94 102 104 106 116 123 125 126 130 133 0
51 62 63 64 71 72 80 83 90 91 92 94 102 104 106 113 120 125 126 130 133 0
52 62 63 79 81 90 91 92 93 94 102 104 106 113 114 118 120 125 126 0
-85 86 0
-79 87 0
57 64 71 72 83 90 91 92 93 94 102 103 106 113 118 125 126 131 134 0
-151 152 0
-64 65 0
-149 150 0
13 77 79 80 90 91 92 93 94 102 104 106 113 128 0
-93 95 0
-65 67 0
33 63 64 71 72 88 90 92 93 94 102 103 106 118 125 126 134 0
-21 71 72 0
28 66 72 88 90 100 111 113 123 128 131 0
-51 79 93 114 118 0
-66 67 0
-111 112 0
-83 84 0
14 69 71 72 79 83 90 91 93 94 102 104 106 114 123 125 130 133 0
-20 69 90 0
21 69 88 90 91 92 93 94 102 108 113 114 123 125 126 131 134 0
-9 90 106 118 126 0
-88 89 0
-5 71 72 79 106 126 0
-107 109 0
22 69 71 72 79 81 90 100 102 104 106 113 114 123 125 126 134 0
23 69 74 79 83 90 91 96 102 104 106 116 118 125 126 131 0
-116 117 0
-78 154 0
24 69 71 72 79 81 83 90 91 92 93 111 120 131 134 0
-4 64 90 113 118 119 125 0
26 69 71 88 90 91 92 93 94 111 116 140 0
-32 71 93 102 106 133 0
30 69 74 88 98 145 0
-137 138 0
32 69 72 79 80 83 90 91 92 94 104 113 114 123 125 126 130 0
15 69 71 72 88 90 91 92 93 102 104 106 113 114 123 126 131 134 0
-70 76 0
-92 97 0
47 69 74 79 81 83 90 91 92 93 94 111 113 114 123 140 0
-34 63 72 79 80 103 126 0
-81 82 0
-98 99 0
50 62 71 72 79 80 83 90 92 93 94 102 106 114 118 125 130 0
-69 70 0
-99 101 0
19 77 81 83 90 92 94 116 123 128 131 134 0
-71 73 0
59 62 63 64 71 72 79 80 83 90 92 94 102 103 106 113 114 120 125 130 133 0
-26 72 123 0
42 62 63 64 71 72 79 80 83 90 92 93 103 113 114 123 131 134 0
-2 83 91 94 114 130 0
20 74 79 85 149 0
-75 76 0
49 63 64 79 91 93 104 113 114 118 120 126 133 0
-74 75 0
-14 80 92 113 126 0
-24 94 113 114 118 125 126 0
1 77 79 83 90 91 92 93 94 102 104 106 113 114 123 128 130 133 0
-87 89 0
8 77 80 83 90 100 102 106 116 123 126 131 134 0
-19 79 91 93 102 104 106 0
9 77 88 100 102 103 116 119 125 130 133 0
-141 142 0
-128 129 0
10 77 79 85 90 147 0
11 77 79 81 83 90 100 108 143 0
12 77 79 90 100 111 116 118 125 126 0
-16 102 106 0
25 77 88 90 91 93 111 114 123 137 0
31 77 79 81 83 91 92 93 94 102 104 106 113 114 123 128 130 133 0
-138 139 0
-103 105 0
7 153 0
-1 80 0
-12 80 83 119 130 133 0
-23 81 92 120 134 0
34 62 64 71 83 90 100 102 106 113 114 118 119 125 131 134 0
-22 83 131 0
-31 90 0
-13 83 114 123 130 133 0
-15 94 125 0
-8 79 103 125 0
-67 68 0
-84 86 0
-86 87 0
